320023.42,14.49,15.87
328727.33,14.11,15.45
340053.46,13.64,14.94
331939.48,13.97,15.3
334440.42,13.87,15.19
340184.99,13.63,14.93
333565.35,13.9,15.23
340992.73,13.6,14.9
335579.88,13.82,15.14
327562.43,14.16,15.51
323021.58,14.36,15.73
333859.31,13.89,15.22
337346.8,13.75,15.06
327762.45,14.15,15.5
326025.38,14.23,15.58
326645.34,14.2,15.55
337856.79,13.73,15.04
334294.38,13.87,15.2
333864.18,13.89,15.22
319185.93,14.53,15.92
